data;
param T := 13500;
param N := 19;
param W := 
[0] 2139
[1] 1165
[2] 9761
[3] 8065
[4] 4842
[5] 5594
[6] 7158
[7] 5731
[8] 6411
[9] 7615
[10] 9457
[11] 6130
[12] 8258
[13] 4917
[14] 2845
[15] 7372
[16] 467
[17] 9410
[18] 8250
;
end;